
Gurobi 10.0.2 (win64) logging started Mon Jul 10 00:47:28 2023

Set parameter LogFile to value "Outputs/Logfiles/model_moo(Jul 10,0047).log"
Gurobi Optimizer version 10.0.2 build v10.0.2rc0 (win64)

CPU model: Intel(R) Core(TM) i5-8265U CPU @ 1.60GHz, instruction set [SSE2|AVX|AVX2]
Thread count: 4 physical cores, 8 logical processors, using up to 8 threads

Optimize a model with 3117 rows, 2464 columns and 9467 nonzeros
Model fingerprint: 0xdc465743
Variable types: 1833 continuous, 631 integer (631 binary)
Coefficient statistics:
  Matrix range     [1e+00, 1e+12]
  Objective range  [4e-04, 3e+01]
  Bounds range     [1e+00, 1e+00]
  RHS range        [1e+00, 2e+07]
Warning: Model contains large matrix coefficients
         Consider reformulating model or setting NumericFocus parameter
         to avoid numerical issues.

---------------------------------------------------------------------------
Multi-objectives: starting optimization with 2 objectives ... 
---------------------------------------------------------------------------

Multi-objectives: applying initial presolve ...
---------------------------------------------------------------------------

Presolve removed 2353 rows and 1222 columns
Presolve time: 0.06s
Presolved: 764 rows and 1242 columns
---------------------------------------------------------------------------

Multi-objectives: optimize objective 1 (objective_re_1) ...
---------------------------------------------------------------------------

Found heuristic solution: objective 0.0000000
Presolve removed 70 rows and 621 columns
Presolve time: 0.02s
Presolved: 694 rows, 621 columns, 1843 nonzeros
Variable types: 0 continuous, 621 integer (621 binary)
Found heuristic solution: objective -979.1157318

Root relaxation: objective -1.133866e+03, 508 iterations, 0.03 seconds (0.00 work units)

    Nodes    |    Current Node    |     Objective Bounds      |     Work
 Expl Unexpl |  Obj  Depth IntInf | Incumbent    BestBd   Gap | It/Node Time

     0     0 -1133.8661    0   60 -979.11573 -1133.8661  15.8%     -    0s
H    0     0                    -1128.764814 -1133.8661  0.45%     -    0s
     0     0     cutoff    0      -1128.7648 -1128.7648  0.00%     -    0s

Cutting planes:
  RLT: 19

Explored 1 nodes (521 simplex iterations) in 0.35 seconds (0.02 work units)
Thread count was 8 (of 8 available processors)

Solution count 2: -1128.76 -979.116 
No other solutions better than -1128.76

Optimal solution found (tolerance 1.00e-04)
Best objective -1.128764814301e+03, best bound -1.128764814301e+03, gap 0.0000%
---------------------------------------------------------------------------

Multi-objectives: optimize objective 2 (objective_cost_2) ...
---------------------------------------------------------------------------


Loaded user MIP start with objective 4.75

Presolve removed 282 rows and 826 columns
Presolve time: 0.10s
Presolved: 483 rows, 416 columns, 1637 nonzeros
Found heuristic solution: objective -4280.867861
Variable types: 0 continuous, 416 integer (416 binary)

Root relaxation: objective -4.888363e+03, 553 iterations, 0.03 seconds (0.00 work units)

    Nodes    |    Current Node    |     Objective Bounds      |     Work
 Expl Unexpl |  Obj  Depth IntInf | Incumbent    BestBd   Gap | It/Node Time

     0     0 -4888.3626    0   92 -4280.8679 -4888.3626  14.2%     -    0s
     0     0 -4362.5851    0  126 -4280.8679 -4362.5851  1.91%     -    0s
     0     0 infeasible    0      -4280.8679 -4280.8679  0.00%     -    0s

Explored 1 nodes (709 simplex iterations) in 0.66 seconds (0.07 work units)
Thread count was 8 (of 8 available processors)

Solution count 1: -4280.87 
No other solutions better than -4280.87

Optimal solution found (tolerance 1.00e-04)
Best objective -4.280867861111e+03, best bound -4.280867861111e+03, gap 0.0000%

---------------------------------------------------------------------------
Multi-objectives: solved in 0.69 seconds (0.07 work units), solution count 3


    Variable            X 
-------------------------
cover[o74,s13]            1 
cover[o98,s13]            1 
cover[o53,s7]            1 
cover[o178,s1]            1 
cover[o203,s18]            1 
cover[o127,s13]            1 
cover[o172,s1]            1 
cover[o51,s13]            1 
cover[o7,s18]            1 
cover[o30,s1]            1 
cover[o221,s1]            1 
cover[o64,s7]            1 
cover[o25,s1]            1 
cover[o94,s18]            1 
cover[o119,s13]            1 
cover[o148,s7]            1 
cover[o208,s7]            1 
cover[o86,s18]            1 
cover[o93,s18]            1 
cover[o108,s13]            1 
cover[o131,s7]            1 
cover[o6,s18]            1 
cover[o10,s18]            1 
cover[o41,s1]            1 
cover[o144,s7]            1 
cover[o169,s1]            1 
cover[o185,s1]            1 
cover[o87,s18]            1 
cover[o168,s1]            1 
cover[o24,s1]            1 
cover[o190,s7]            1 
cover[o97,s13]            1 
cover[o106,s13]            1 
cover[o157,s7]            1 
cover[o175,s1]            1 
cover[o136,s7]            1 
cover[o145,s7]            1 
cover[o3,s7]            1 
cover[o28,s1]            1 
cover[o45,s13]            1 
cover[o27,s1]            1 
cover[o219,s1]            1 
cover[o9,s13]            1 
cover[o212,s7]            1 
cover[o139,s7]            1 
cover[o214,s7]            1 
cover[o113,s13]            1 
cover[o160,s7]            1 
cover[o191,s7]            1 
cover[o104,s13]            1 
cover[o184,s1]            1 
cover[o37,s1]            1 
cover[o165,s1]            1 
cover[o83,s18]            1 
cover[o114,s13]            1 
cover[o155,s7]            1 
cover[o91,s18]            1 
cover[o138,s7]            1 
cover[o183,s1]            1 
cover[o11,s13]            1 
cover[o181,s1]            1 
cover[o48,s13]            1 
cover[o129,s13]            1 
cover[o117,s13]            1 
cover[o153,s7]            1 
cover[o101,s13]            1 
cover[o44,s18]            1 
cover[o109,s13]            1 
cover[o59,s7]            1 
cover[o121,s13]            1 
cover[o13,s7]            1 
cover[o128,s13]            1 
cover[o90,s18]            1 
cover[o79,s18]            1 
cover[o161,s7]            1 
cover[o130,s7]            1 
cover[o107,s13]            1 
cover[o42,s1]            1 
cover[o31,s1]            1 
cover[o19,s7]            1 
cover[o22,s1]            1 
cover[o187,s1]            1 
cover[o84,s18]            1 
cover[o132,s7]            1 
cover[o198,s1]            1 
cover[o49,s13]            1 
cover[o116,s13]            1 
cover[o124,s13]            1 
cover[o134,s7]            1 
cover[o82,s18]            1 
cover[o220,s1]            1 
cover[o207,s7]            1 
cover[o43,s1]            1 
cover[o192,s1]            1 
cover[o174,s1]            1 
cover[o78,s13]            1 
 select[s13]            1 
 select[s18]            1 
  select[s7]            1 
  select[s1]            1 
deploy[o74,s18,c]           31 
deploy[o98,s18,c]           31 
deploy[o53,s7,c]          110 
deploy[o178,s1,i]          157 
deploy[o203,s18,c]            5 
deploy[o127,s18,c]            5 
deploy[o172,s1,i]            7 
deploy[o51,s13,i]           37 
deploy[o51,s18,i]           37 
deploy[o7,s18,i]           37 
deploy[o64,s7,i]           37 
deploy[o64,s13,i]           37 
deploy[o25,s1,i]           37 
deploy[o94,s18,i]            7 
deploy[o148,s7,m]            2 
deploy[o208,s7,c]          110 
deploy[o86,s18,c]          110 
deploy[o93,s18,c]            5 
deploy[o131,s7,i]            7 
deploy[o131,s13,i]            7 
deploy[o6,s18,m]          100 
deploy[o10,s13,m]          100 
deploy[o10,s18,m]          100 
deploy[o144,s7,i]          157 
deploy[o169,s1,c]           31 
deploy[o185,s1,c]          110 
deploy[o87,s18,m]          100 
deploy[o190,s7,i]           37 
deploy[o97,s13,i]            7 
deploy[o97,s18,i]            7 
deploy[o106,s18,c]            5 
deploy[o157,s7,m]            2 
deploy[o175,s1,c]           31 
deploy[o136,s7,i]          157 
deploy[o136,s13,i]          157 
deploy[o145,s7,i]           37 
deploy[o3,s7,i]           37 
deploy[o45,s7,c]           31 
deploy[o27,s1,c]           31 
deploy[o9,s13,i]           37 
deploy[o9,s18,i]           37 
deploy[o212,s7,c]            5 
deploy[o139,s7,i]           37 
deploy[o214,s7,m]           20 
deploy[o160,s7,m]           20 
deploy[o191,s7,m]           20 
deploy[o191,s13,m]           20 
deploy[o104,s13,i]            7 
deploy[o104,s18,i]            7 
deploy[o184,s1,c]           31 
deploy[o165,s1,i]            7 
deploy[o83,s18,m]           20 
deploy[o114,s13,m]          100 
deploy[o155,s7,i]            7 
deploy[o91,s18,m]            2 
deploy[o138,s7,m]          100 
deploy[o183,s1,i]            7 
deploy[o11,s13,m]          100 
deploy[o11,s18,m]          100 
deploy[o181,s1,c]          110 
deploy[o48,s13,m]            2 
deploy[o129,s18,c]          110 
deploy[o117,s13,i]           37 
deploy[o153,s7,m]            2 
deploy[o44,s13,i]           37 
deploy[o44,s18,i]           37 
deploy[o109,s13,i]            7 
deploy[o109,s18,i]            7 
deploy[o59,s7,m]            2 
deploy[o59,s13,m]            2 
deploy[o121,s13,i]          157 
deploy[o13,s7,c]            5 
deploy[o128,s13,m]            2 
deploy[o128,s18,m]            2 
deploy[o90,s18,m]           20 
deploy[o79,s18,c]          110 
deploy[o161,s7,c]           31 
deploy[o130,s7,i]            7 
deploy[o130,s13,i]            7 
deploy[o42,s1,c]           31 
deploy[o19,s7,m]            2 
deploy[o22,s1,c]          110 
deploy[o187,s1,i]            7 
deploy[o84,s18,c]           31 
deploy[o132,s7,m]            2 
deploy[o132,s13,m]            2 
deploy[o198,s1,i]            7 
deploy[o49,s18,c]          110 
deploy[o124,s13,i]          157 
deploy[o134,s7,i]          157 
deploy[o134,s13,i]          157 
deploy[o82,s18,c]           31 
deploy[o220,s1,i]           37 
deploy[o207,s7,c]            5 
deploy[o43,s1,c]          110 
deploy[o192,s1,i]            7 
deploy[o174,s1,c]          110 
deploy[o78,s13,m]           20 
deploy[o78,s18,m]           20 
